(set-logic QF_NRA)
(declare-fun skoY () Real)
(declare-fun skoX () Real)
(declare-fun skoZ () Real)
(assert (and (not (<= (* (- 1) skoY) 0)) (and (not (<= (+ skoY skoX skoZ (* (- 1) (* skoY skoX skoZ))) 0)) (and (not (<= (+ (* 3 skoY) (* 3 skoX) (* 3 skoZ) (* (- 3) (* skoY skoX skoZ)) (* skoY skoY skoX) (* skoY skoY skoZ) (* skoY skoY skoY) (* (- 1) (* skoY skoY skoY skoX skoZ))) 0)) (and (not (<= (+ (* (- 819) skoY) (* (- 819) skoX) (* (- 819) skoZ) (* 450 (* skoY skoX)) (* 600 (* skoY skoY)) (* 600 (* skoX skoX)) (* 450 (* skoY skoZ)) (* 450 (* skoX skoZ)) (* 819 (* skoY skoX skoZ)) (* (- 273) (* skoY skoY skoX)) (* (- 273) (* skoY skoY skoZ)) (* (- 273) (* skoY skoY skoY)) (* (- 273) (* skoX skoX skoX)) (* (- 273) (* skoY skoX skoX)) (* (- 273) (* skoX skoX skoZ)) (* 350 (* skoY skoY skoX skoX)) (* (- 300) (* skoY skoY skoX skoZ)) (* (- 300) (* skoY skoX skoX skoZ)) (* 273 (* skoY skoY skoY skoX skoZ)) (* (- 91) (* skoY skoY skoX skoX skoX)) (* (- 91) (* skoY skoY skoY skoX skoX)) (* 273 (* skoY skoX skoX skoX skoZ)) (* (- 91) (* skoY skoY skoX skoX skoZ)) (* (- 50) (* skoY skoY skoY skoX skoX skoX)) (* (- 150) (* skoY skoY skoX skoX skoX skoZ)) (* (- 150) (* skoY skoY skoY skoX skoX skoZ)) (* 91 (* skoY skoY skoY skoX skoX skoX skoZ))) (- 450))) (and (or (<= (* (- 1) skoY) 0) (<= (+ skoY skoX skoZ (* skoY skoX) (* (- 1) (* skoY skoX skoZ))) 1)) (and (or (not (<= (* (- 1) skoY) 0)) (<= (+ (* (- 1) skoY) (* (- 1) skoX) (* (- 1) skoZ) (* skoY skoX skoZ)) 0)) (and (not (<= skoZ 0)) (and (not (<= skoX (- 1))) (and (not (<= (* (- 1) skoY) (- 1))) (not (<= (+ skoY (* (- 1) skoX)) 0))))))))))))
(set-info :status sat)
(check-sat)
